<instance format="XCSP3" type="CSP">
  <variables>
    <array id="x" note="x represents the hexagon; on row x[i], only the first n - |n/2 - i| cells are useful (here, n = 9)." size="[9][9]"> 6..66 </array>
  </variables>
  <constraints>
    <allDifferent> x[][0] x[][1] x[][2] x[][3] x[][4] x[1..2][5] x[2][6] x[3][5..7] x[4][5..8] x[5][5..7] x[6][5..6] x[7][5] </allDifferent>
    <group class="rows" note="All rows sum to the magic value">
      <sum>
        <list> %... </list>
        <condition> (eq,244) </condition>
      </sum>
      <args> x[0][0..4] </args>
      <args> x[1][0..5] </args>
      <args> x[2][0..6] </args>
      <args> x[3][0..7] </args>
      <args> x[4][] </args>
      <args> x[5][0..7] </args>
      <args> x[6][0..6] </args>
      <args> x[7][0..5] </args>
      <args> x[8][0..4] </args>
    </group>
    <group class="rightDiagonals" note="All right-sloping diagonals sum to the magic value">
      <sum>
        <list> %... </list>
        <condition> (eq,244) </condition>
      </sum>
      <args> x[4..8][0] </args>
      <args> x[3][0] x[4..8][1] </args>
      <args> x[2][0] x[3][1] x[4..8][2] </args>
      <args> x[1][0] x[2][1] x[3][2] x[4..8][3] </args>
      <args> x[0][0] x[1][1] x[2][2] x[3][3] x[4..8][4] </args>
      <args> x[0][1] x[1][2] x[2][3] x[3][4] x[4..7][5] </args>
      <args> x[0][2] x[1][3] x[2][4] x[3][5] x[4..6][6] </args>
      <args> x[0][3] x[1][4] x[2][5] x[3][6] x[4..5][7] </args>
      <args> x[0][4] x[1][5] x[2][6] x[3][7] x[4][8] </args>
    </group>
    <group class="leftDiagonals" note="All left-sloping diagonals sum to the magic value">
      <sum>
        <list> %... </list>
        <condition> (eq,244) </condition>
      </sum>
      <args> x[0..4][0] </args>
      <args> x[0..4][1] x[5][0] </args>
      <args> x[0..4][2] x[5][1] x[6][0] </args>
      <args> x[0..4][3] x[5][2] x[6][1] x[7][0] </args>
      <args> x[0..4][4] x[5][3] x[6][2] x[7][1] x[8][0] </args>
      <args> x[1..4][5] x[5][4] x[6][3] x[7][2] x[8][1] </args>
      <args> x[2..4][6] x[5][5] x[6][4] x[7][3] x[8][2] </args>
      <args> x[3..4][7] x[5][6] x[6][5] x[7][4] x[8][3] </args>
      <args> x[4][8] x[5][7] x[6][6] x[7][5] x[8][4] </args>
    </group>
    <group class="symmetryBreaking">
      <intension> lt(%0,%1) </intension>
      <args> x[0][0] x[0][4] </args>
      <args> x[0][0] x[4][8] </args>
      <args> x[0][0] x[8][4] </args>
      <args> x[0][0] x[8][0] </args>
      <args> x[0][0] x[4][0] </args>
      <args> x[0][4] x[4][0] </args>
    </group>
  </constraints>
</instance>
